/*********************************************
 * OPL 12.10.0.0 Data
 * Author: Kinast
 * Creation date: Aug 17, 2021 at 11:48:39 AM
 *********************************************/

 nOrders = 50;
 nTasks = 600;

 nWorkgroups = 10;
 nWorkstations = 50;

 nCobots = 0;
 cobotTimeFactor = 0.7;

 workstations = {
 	< 0, "Workstation 0", 0, 0.9, 1.13, 1, 3 >,
 	< 1, "Workstation 1", 1, 1.24, 1.19, 1, 2 >,
 	< 2, "Workstation 2", 2, 1.11, 0.77, 1, 1 >,
 	< 3, "Workstation 3", 0, 1.17, 1.12, 1, 5 >,
 	< 4, "Workstation 4", 3, 0.99, 0.82, 1, 1 >,
 	< 5, "Workstation 5", 4, 1.1, 1.16, 1, 3 >,
 	< 6, "Workstation 6", 1, 1.04, 0.82, 1, 5 >,
 	< 7, "Workstation 7", 5, 1.09, 0.86, 1, 5 >,
 	< 8, "Workstation 8", 5, 0.84, 1.02, 1, 4 >,
 	< 9, "Workstation 9", 2, 1.14, 1.14, 1, 2 >,
 	< 10, "Workstation 10", 5, 1.11, 0.88, 1, 1 >,
 	< 11, "Workstation 11", 1, 0.89, 1.04, 1, 4 >,
 	< 12, "Workstation 12", 6, 0.97, 0.96, 1, 1 >,
 	< 13, "Workstation 13", 7, 0.97, 1.06, 1, 4 >,
 	< 14, "Workstation 14", 2, 1.18, 0.8, 1, 2 >,
 	< 15, "Workstation 15", 8, 0.95, 0.83, 1, 5 >,
 	< 16, "Workstation 16", 8, 1, 1.14, 1, 2 >,
 	< 17, "Workstation 17", 5, 0.87, 0.79, 1, 1 >,
 	< 18, "Workstation 18", 3, 0.97, 1.06, 1, 5 >,
 	< 19, "Workstation 19", 9, 0.99, 0.92, 1, 1 >,
 	< 20, "Workstation 20", 0, 0.79, 0.8, 1, 3 >,
 	< 21, "Workstation 21", 4, 0.8, 0.83, 1, 5 >,
 	< 22, "Workstation 22", 9, 0.78, 1, 1, 1 >,
 	< 23, "Workstation 23", 3, 0.8, 0.93, 1, 2 >,
 	< 24, "Workstation 24", 7, 1.21, 1.04, 1, 1 >,
 	< 25, "Workstation 25", 1, 1.06, 1.04, 1, 4 >,
 	< 26, "Workstation 26", 4, 0.85, 1.02, 1, 2 >,
 	< 27, "Workstation 27", 6, 0.78, 1.06, 1, 5 >,
 	< 28, "Workstation 28", 0, 0.79, 0.88, 1, 1 >,
 	< 29, "Workstation 29", 9, 1.15, 0.98, 1, 1 >,
 	< 30, "Workstation 30", 4, 0.87, 0.87, 1, 4 >,
 	< 31, "Workstation 31", 3, 0.75, 1.04, 1, 1 >,
 	< 32, "Workstation 32", 8, 1, 0.97, 1, 1 >,
 	< 33, "Workstation 33", 6, 1.14, 1.01, 1, 5 >,
 	< 34, "Workstation 34", 6, 1.12, 1.01, 1, 1 >,
 	< 35, "Workstation 35", 0, 1.03, 0.8, 1, 5 >,
 	< 36, "Workstation 36", 2, 0.96, 1.03, 1, 1 >,
 	< 37, "Workstation 37", 8, 0.77, 0.99, 1, 3 >,
 	< 38, "Workstation 38", 4, 0.99, 1.14, 1, 1 >,
 	< 39, "Workstation 39", 1, 0.9, 1.2, 1, 1 >,
 	< 40, "Workstation 40", 3, 1.09, 0.78, 1, 1 >,
 	< 41, "Workstation 41", 2, 1.24, 0.99, 1, 1 >,
 	< 42, "Workstation 42", 9, 0.77, 1.08, 1, 3 >,
 	< 43, "Workstation 43", 8, 0.89, 0.79, 1, 1 >,
 	< 44, "Workstation 44", 5, 1.02, 1.12, 1, 2 >,
 	< 45, "Workstation 45", 6, 0.93, 0.8, 1, 1 >,
 	< 46, "Workstation 46", 7, 1.24, 1.13, 1, 1 >,
 	< 47, "Workstation 47", 7, 0.8, 1.19, 1, 3 >,
 	< 48, "Workstation 48", 7, 0.76, 1.08, 1, 2 >,
 	< 49, "Workstation 49", 9, 1, 0.86, 1, 5 >
 };

 tasks = {
 	// order 0
 	< 0, 0, 1, 62, 0, 198, 9, -1 >,
 	< 1, 0, 10, 46, 32, 185, 2, 0 >,
 	< 2, 0, 7, 0, 0, 184, 8, 1 >,
 	< 3, 0, 8, 0, 0, 101, 1, 2 >,
 	< 4, 0, 7, 0, 88, 169, 6, 3 >,
 	< 5, 0, 10, 0, 47, 170, 7, 4 >,
 	< 6, 0, 8, 0, 95, 160, 0, 5 >,
 	< 7, 0, 1, 74, 56, 110, 3, 6 >,
 	< 8, 0, 9, 85, 0, 200, 4, 7 >,
 	< 9, 0, 5, 0, 85, 162, 5, 8 >,
 	< 10, 0, 8, 0, 94, 135, 9, 9 >,
 	< 11, 0, 4, 0, 45, 185, 2, 10 >,
 	// order 1
 	< 12, 1, 4, 68, 72, 112, 8, -1 >,
 	< 13, 1, 8, 63, 0, 117, 1, 12 >,
 	< 14, 1, 1, 94, 36, 191, 6, 13 >,
 	< 15, 1, 7, 61, 0, 162, 7, 14 >,
 	< 16, 1, 5, 0, 0, 128, 0, 15 >,
 	< 17, 1, 9, 0, 0, 170, 3, 16 >,
 	< 18, 1, 5, 79, 86, 113, 4, 17 >,
 	< 19, 1, 5, 0, 91, 177, 5, 18 >,
 	< 20, 1, 4, 63, 0, 170, 9, 19 >,
 	< 21, 1, 3, 0, 0, 125, 2, 20 >,
 	< 22, 1, 5, 0, 0, 178, 8, 21 >,
 	< 23, 1, 8, 51, 0, 174, 1, 22 >,
 	// order 2
 	< 24, 2, 4, 0, 65, 178, 6, -1 >,
 	< 25, 2, 9, 0, 0, 141, 7, 24 >,
 	< 26, 2, 2, 78, 40, 182, 0, 25 >,
 	< 27, 2, 7, 38, 75, 131, 3, 26 >,
 	< 28, 2, 1, 87, 50, 115, 4, 27 >,
 	< 29, 2, 8, 82, 0, 184, 5, 28 >,
 	< 30, 2, 10, 0, 0, 155, 9, 29 >,
 	< 31, 2, 1, 81, 38, 129, 2, 30 >,
 	< 32, 2, 9, 72, 68, 119, 8, 31 >,
 	< 33, 2, 3, 0, 0, 158, 1, 32 >,
 	< 34, 2, 4, 60, 0, 152, 6, 33 >,
 	< 35, 2, 10, 64, 68, 149, 7, 34 >,
 	// order 3
 	< 36, 3, 7, 0, 81, 155, 0, -1 >,
 	< 37, 3, 10, 0, 96, 138, 3, 36 >,
 	< 38, 3, 4, 31, 0, 191, 4, 37 >,
 	< 39, 3, 3, 0, 98, 152, 5, 38 >,
 	< 40, 3, 9, 66, 39, 189, 9, 39 >,
 	< 41, 3, 10, 0, 0, 131, 2, 40 >,
 	< 42, 3, 3, 71, 40, 187, 8, 41 >,
 	< 43, 3, 9, 100, 0, 199, 1, 42 >,
 	< 44, 3, 5, 0, 0, 197, 6, 43 >,
 	< 45, 3, 4, 0, 73, 169, 7, 44 >,
 	< 46, 3, 1, 80, 0, 167, 0, 45 >,
 	< 47, 3, 10, 46, 77, 192, 3, 46 >,
 	// order 4
 	< 48, 4, 3, 0, 39, 138, 4, -1 >,
 	< 49, 4, 10, 0, 0, 104, 5, 48 >,
 	< 50, 4, 4, 84, 68, 135, 9, 49 >,
 	< 51, 4, 7, 0, 88, 147, 2, 50 >,
 	< 52, 4, 10, 0, 0, 123, 8, 51 >,
 	< 53, 4, 6, 0, 39, 119, 1, 52 >,
 	< 54, 4, 4, 49, 0, 137, 6, 53 >,
 	< 55, 4, 8, 62, 0, 158, 7, 54 >,
 	< 56, 4, 4, 0, 70, 131, 0, 55 >,
 	< 57, 4, 6, 33, 0, 132, 3, 56 >,
 	< 58, 4, 4, 0, 83, 119, 4, 57 >,
 	< 59, 4, 10, 33, 0, 162, 5, 58 >,
 	// order 5
 	< 60, 5, 2, 0, 0, 193, 9, -1 >,
 	< 61, 5, 7, 49, 0, 130, 2, 60 >,
 	< 62, 5, 8, 0, 0, 126, 8, 61 >,
 	< 63, 5, 10, 0, 0, 112, 1, 62 >,
 	< 64, 5, 9, 0, 69, 121, 6, 63 >,
 	< 65, 5, 1, 92, 0, 194, 7, 64 >,
 	< 66, 5, 6, 0, 0, 194, 0, 65 >,
 	< 67, 5, 10, 0, 0, 145, 3, 66 >,
 	< 68, 5, 1, 0, 93, 155, 4, 67 >,
 	< 69, 5, 3, 82, 96, 114, 5, 68 >,
 	< 70, 5, 10, 51, 86, 196, 9, 69 >,
 	< 71, 5, 10, 34, 48, 127, 2, 70 >,
 	// order 6
 	< 72, 6, 1, 0, 83, 131, 8, -1 >,
 	< 73, 6, 9, 62, 0, 183, 1, 72 >,
 	< 74, 6, 6, 0, 0, 117, 6, 73 >,
 	< 75, 6, 10, 61, 0, 147, 7, 74 >,
 	< 76, 6, 5, 82, 0, 123, 0, 75 >,
 	< 77, 6, 3, 0, 100, 100, 3, 76 >,
 	< 78, 6, 4, 0, 84, 184, 4, 77 >,
 	< 79, 6, 10, 0, 65, 121, 5, 78 >,
 	< 80, 6, 9, 64, 0, 109, 9, 79 >,
 	< 81, 6, 2, 83, 99, 133, 2, 80 >,
 	< 82, 6, 3, 0, 0, 186, 8, 81 >,
 	< 83, 6, 5, 0, 0, 160, 1, 82 >,
 	// order 7
 	< 84, 7, 6, 0, 0, 187, 6, -1 >,
 	< 85, 7, 5, 61, 76, 132, 7, 84 >,
 	< 86, 7, 3, 92, 87, 158, 0, 85 >,
 	< 87, 7, 6, 0, 42, 106, 3, 86 >,
 	< 88, 7, 4, 0, 0, 100, 4, 87 >,
 	< 89, 7, 7, 0, 0, 108, 5, 88 >,
 	< 90, 7, 10, 0, 41, 110, 9, 89 >,
 	< 91, 7, 10, 0, 99, 102, 2, 90 >,
 	< 92, 7, 3, 42, 0, 143, 8, 91 >,
 	< 93, 7, 4, 0, 0, 130, 1, 92 >,
 	< 94, 7, 3, 50, 0, 161, 6, 93 >,
 	< 95, 7, 1, 42, 41, 186, 7, 94 >,
 	// order 8
 	< 96, 8, 8, 37, 82, 190, 0, -1 >,
 	< 97, 8, 7, 0, 99, 169, 3, 96 >,
 	< 98, 8, 9, 55, 0, 154, 4, 97 >,
 	< 99, 8, 9, 0, 0, 168, 5, 98 >,
 	< 100, 8, 7, 0, 38, 120, 9, 99 >,
 	< 101, 8, 7, 0, 38, 158, 2, 100 >,
 	< 102, 8, 8, 0, 38, 123, 8, 101 >,
 	< 103, 8, 7, 48, 0, 153, 1, 102 >,
 	< 104, 8, 7, 78, 0, 154, 6, 103 >,
 	< 105, 8, 10, 77, 0, 151, 7, 104 >,
 	< 106, 8, 7, 0, 64, 125, 0, 105 >,
 	< 107, 8, 6, 100, 38, 149, 3, 106 >,
 	// order 9
 	< 108, 9, 8, 0, 0, 118, 4, -1 >,
 	< 109, 9, 2, 0, 0, 112, 5, 108 >,
 	< 110, 9, 9, 0, 76, 150, 9, 109 >,
 	< 111, 9, 1, 68, 0, 158, 2, 110 >,
 	< 112, 9, 3, 81, 73, 194, 8, 111 >,
 	< 113, 9, 8, 33, 77, 181, 1, 112 >,
 	< 114, 9, 6, 54, 0, 196, 6, 113 >,
 	< 115, 9, 7, 0, 0, 134, 7, 114 >,
 	< 116, 9, 7, 0, 55, 150, 0, 115 >,
 	< 117, 9, 1, 0, 0, 146, 3, 116 >,
 	< 118, 9, 7, 0, 0, 142, 4, 117 >,
 	< 119, 9, 6, 0, 93, 168, 5, 118 >,
 	// order 10
 	< 120, 10, 3, 0, 0, 131, 9, -1 >,
 	< 121, 10, 6, 0, 63, 108, 2, 120 >,
 	< 122, 10, 4, 0, 0, 192, 8, 121 >,
 	< 123, 10, 1, 0, 0, 157, 1, 122 >,
 	< 124, 10, 7, 0, 0, 111, 6, 123 >,
 	< 125, 10, 10, 0, 71, 123, 7, 124 >,
 	< 126, 10, 7, 0, 0, 104, 0, 125 >,
 	< 127, 10, 2, 0, 0, 101, 3, 126 >,
 	< 128, 10, 3, 32, 0, 165, 4, 127 >,
 	< 129, 10, 1, 0, 0, 193, 5, 128 >,
 	< 130, 10, 1, 58, 99, 101, 9, 129 >,
 	< 131, 10, 2, 66, 60, 157, 2, 130 >,
 	// order 11
 	< 132, 11, 4, 0, 81, 136, 8, -1 >,
 	< 133, 11, 9, 55, 0, 115, 1, 132 >,
 	< 134, 11, 2, 93, 73, 120, 6, 133 >,
 	< 135, 11, 3, 0, 0, 109, 7, 134 >,
 	< 136, 11, 1, 0, 0, 117, 0, 135 >,
 	< 137, 11, 2, 0, 61, 194, 3, 136 >,
 	< 138, 11, 2, 79, 61, 191, 4, 137 >,
 	< 139, 11, 7, 72, 0, 128, 5, 138 >,
 	< 140, 11, 9, 93, 60, 140, 9, 139 >,
 	< 141, 11, 9, 0, 0, 198, 2, 140 >,
 	< 142, 11, 8, 0, 0, 134, 8, 141 >,
 	< 143, 11, 5, 0, 53, 155, 1, 142 >,
 	// order 12
 	< 144, 12, 9, 0, 0, 141, 6, -1 >,
 	< 145, 12, 10, 65, 0, 145, 7, 144 >,
 	< 146, 12, 10, 77, 82, 181, 0, 145 >,
 	< 147, 12, 3, 0, 0, 136, 3, 146 >,
 	< 148, 12, 8, 77, 33, 196, 4, 147 >,
 	< 149, 12, 5, 0, 0, 129, 5, 148 >,
 	< 150, 12, 10, 91, 0, 104, 9, 149 >,
 	< 151, 12, 5, 0, 48, 196, 2, 150 >,
 	< 152, 12, 5, 32, 0, 123, 8, 151 >,
 	< 153, 12, 5, 0, 0, 174, 1, 152 >,
 	< 154, 12, 7, 0, 0, 120, 6, 153 >,
 	< 155, 12, 5, 84, 0, 162, 7, 154 >,
 	// order 13
 	< 156, 13, 1, 0, 56, 130, 0, -1 >,
 	< 157, 13, 1, 0, 0, 109, 3, 156 >,
 	< 158, 13, 5, 52, 68, 114, 4, 157 >,
 	< 159, 13, 2, 87, 49, 128, 5, 158 >,
 	< 160, 13, 7, 54, 0, 151, 9, 159 >,
 	< 161, 13, 3, 57, 0, 162, 2, 160 >,
 	< 162, 13, 3, 0, 78, 181, 8, 161 >,
 	< 163, 13, 5, 0, 97, 190, 1, 162 >,
 	< 164, 13, 10, 0, 63, 142, 6, 163 >,
 	< 165, 13, 1, 97, 0, 148, 7, 164 >,
 	< 166, 13, 8, 0, 53, 143, 0, 165 >,
 	< 167, 13, 9, 0, 86, 186, 3, 166 >,
 	// order 14
 	< 168, 14, 7, 76, 52, 109, 4, -1 >,
 	< 169, 14, 2, 53, 95, 118, 5, 168 >,
 	< 170, 14, 9, 0, 0, 126, 9, 169 >,
 	< 171, 14, 9, 100, 0, 171, 2, 170 >,
 	< 172, 14, 10, 0, 90, 125, 8, 171 >,
 	< 173, 14, 3, 0, 0, 200, 1, 172 >,
 	< 174, 14, 3, 0, 36, 127, 6, 173 >,
 	< 175, 14, 10, 30, 0, 132, 7, 174 >,
 	< 176, 14, 10, 73, 0, 155, 0, 175 >,
 	< 177, 14, 6, 0, 97, 117, 3, 176 >,
 	< 178, 14, 1, 0, 52, 114, 4, 177 >,
 	< 179, 14, 8, 79, 34, 181, 5, 178 >,
 	// order 15
 	< 180, 15, 10, 54, 0, 186, 9, -1 >,
 	< 181, 15, 4, 37, 0, 157, 2, 180 >,
 	< 182, 15, 8, 77, 33, 130, 8, 181 >,
 	< 183, 15, 1, 0, 0, 103, 1, 182 >,
 	< 184, 15, 8, 0, 0, 198, 6, 183 >,
 	< 185, 15, 10, 0, 97, 156, 7, 184 >,
 	< 186, 15, 4, 30, 0, 152, 0, 185 >,
 	< 187, 15, 10, 0, 0, 184, 3, 186 >,
 	< 188, 15, 7, 0, 62, 154, 4, 187 >,
 	< 189, 15, 7, 0, 52, 176, 5, 188 >,
 	< 190, 15, 1, 0, 50, 174, 9, 189 >,
 	< 191, 15, 1, 0, 67, 137, 2, 190 >,
 	// order 16
 	< 192, 16, 6, 88, 68, 106, 8, -1 >,
 	< 193, 16, 6, 75, 0, 158, 1, 192 >,
 	< 194, 16, 10, 0, 0, 172, 6, 193 >,
 	< 195, 16, 1, 49, 63, 177, 7, 194 >,
 	< 196, 16, 4, 84, 39, 175, 0, 195 >,
 	< 197, 16, 7, 0, 0, 144, 3, 196 >,
 	< 198, 16, 4, 93, 0, 192, 4, 197 >,
 	< 199, 16, 5, 95, 0, 101, 5, 198 >,
 	< 200, 16, 5, 41, 0, 109, 9, 199 >,
 	< 201, 16, 4, 0, 81, 152, 2, 200 >,
 	< 202, 16, 8, 33, 47, 200, 8, 201 >,
 	< 203, 16, 1, 58, 0, 189, 1, 202 >,
 	// order 17
 	< 204, 17, 6, 79, 0, 146, 6, -1 >,
 	< 205, 17, 2, 86, 84, 135, 7, 204 >,
 	< 206, 17, 3, 0, 0, 136, 0, 205 >,
 	< 207, 17, 7, 83, 53, 112, 3, 206 >,
 	< 208, 17, 6, 75, 0, 148, 4, 207 >,
 	< 209, 17, 4, 0, 56, 185, 5, 208 >,
 	< 210, 17, 6, 0, 0, 190, 9, 209 >,
 	< 211, 17, 4, 0, 74, 125, 2, 210 >,
 	< 212, 17, 6, 39, 61, 175, 8, 211 >,
 	< 213, 17, 6, 0, 57, 146, 1, 212 >,
 	< 214, 17, 2, 99, 99, 106, 6, 213 >,
 	< 215, 17, 1, 99, 92, 188, 7, 214 >,
 	// order 18
 	< 216, 18, 3, 89, 0, 132, 0, -1 >,
 	< 217, 18, 5, 40, 38, 150, 3, 216 >,
 	< 218, 18, 9, 0, 0, 178, 4, 217 >,
 	< 219, 18, 3, 93, 0, 114, 5, 218 >,
 	< 220, 18, 6, 79, 43, 136, 9, 219 >,
 	< 221, 18, 10, 0, 0, 197, 2, 220 >,
 	< 222, 18, 7, 0, 94, 192, 8, 221 >,
 	< 223, 18, 9, 79, 0, 180, 1, 222 >,
 	< 224, 18, 9, 0, 31, 115, 6, 223 >,
 	< 225, 18, 2, 0, 50, 186, 7, 224 >,
 	< 226, 18, 4, 0, 82, 134, 0, 225 >,
 	< 227, 18, 3, 0, 91, 197, 3, 226 >,
 	// order 19
 	< 228, 19, 6, 82, 63, 106, 4, -1 >,
 	< 229, 19, 2, 0, 0, 195, 5, 228 >,
 	< 230, 19, 6, 74, 0, 125, 9, 229 >,
 	< 231, 19, 3, 0, 80, 101, 2, 230 >,
 	< 232, 19, 10, 0, 0, 154, 8, 231 >,
 	< 233, 19, 7, 75, 70, 162, 1, 232 >,
 	< 234, 19, 7, 89, 0, 125, 6, 233 >,
 	< 235, 19, 3, 0, 0, 155, 7, 234 >,
 	< 236, 19, 1, 0, 0, 107, 0, 235 >,
 	< 237, 19, 4, 0, 0, 147, 3, 236 >,
 	< 238, 19, 6, 0, 0, 115, 4, 237 >,
 	< 239, 19, 6, 0, 32, 120, 5, 238 >,
 	// order 20
 	< 240, 20, 7, 0, 0, 192, 9, -1 >,
 	< 241, 20, 5, 0, 92, 131, 2, 240 >,
 	< 242, 20, 10, 0, 0, 200, 8, 241 >,
 	< 243, 20, 1, 37, 0, 162, 1, 242 >,
 	< 244, 20, 1, 48, 50, 113, 6, 243 >,
 	< 245, 20, 1, 0, 0, 151, 7, 244 >,
 	< 246, 20, 5, 0, 0, 199, 0, 245 >,
 	< 247, 20, 3, 0, 51, 193, 3, 246 >,
 	< 248, 20, 7, 81, 0, 120, 4, 247 >,
 	< 249, 20, 1, 0, 0, 116, 5, 248 >,
 	< 250, 20, 6, 0, 0, 104, 9, 249 >,
 	< 251, 20, 4, 89, 0, 194, 2, 250 >,
 	// order 21
 	< 252, 21, 10, 99, 51, 188, 8, -1 >,
 	< 253, 21, 4, 0, 0, 163, 1, 252 >,
 	< 254, 21, 1, 0, 66, 149, 6, 253 >,
 	< 255, 21, 2, 97, 0, 177, 7, 254 >,
 	< 256, 21, 1, 100, 95, 158, 0, 255 >,
 	< 257, 21, 10, 0, 0, 170, 3, 256 >,
 	< 258, 21, 7, 0, 0, 111, 4, 257 >,
 	< 259, 21, 6, 0, 86, 136, 5, 258 >,
 	< 260, 21, 9, 86, 76, 137, 9, 259 >,
 	< 261, 21, 2, 95, 91, 189, 2, 260 >,
 	< 262, 21, 8, 53, 52, 193, 8, 261 >,
 	< 263, 21, 3, 81, 38, 199, 1, 262 >,
 	// order 22
 	< 264, 22, 6, 95, 89, 195, 6, -1 >,
 	< 265, 22, 2, 0, 72, 143, 7, 264 >,
 	< 266, 22, 10, 0, 54, 134, 0, 265 >,
 	< 267, 22, 8, 33, 0, 155, 3, 266 >,
 	< 268, 22, 9, 71, 46, 124, 4, 267 >,
 	< 269, 22, 5, 92, 96, 169, 5, 268 >,
 	< 270, 22, 9, 0, 61, 126, 9, 269 >,
 	< 271, 22, 8, 77, 42, 110, 2, 270 >,
 	< 272, 22, 2, 0, 63, 158, 8, 271 >,
 	< 273, 22, 10, 0, 91, 166, 1, 272 >,
 	< 274, 22, 5, 97, 0, 102, 6, 273 >,
 	< 275, 22, 6, 76, 88, 196, 7, 274 >,
 	// order 23
 	< 276, 23, 5, 0, 0, 155, 0, -1 >,
 	< 277, 23, 7, 67, 0, 107, 3, 276 >,
 	< 278, 23, 8, 74, 62, 147, 4, 277 >,
 	< 279, 23, 7, 92, 84, 192, 5, 278 >,
 	< 280, 23, 1, 0, 0, 159, 9, 279 >,
 	< 281, 23, 8, 0, 0, 116, 2, 280 >,
 	< 282, 23, 3, 0, 0, 135, 8, 281 >,
 	< 283, 23, 2, 35, 0, 192, 1, 282 >,
 	< 284, 23, 10, 0, 64, 179, 6, 283 >,
 	< 285, 23, 9, 35, 0, 187, 7, 284 >,
 	< 286, 23, 6, 96, 90, 106, 0, 285 >,
 	< 287, 23, 1, 0, 0, 110, 3, 286 >,
 	// order 24
 	< 288, 24, 10, 84, 0, 107, 4, -1 >,
 	< 289, 24, 9, 90, 0, 173, 5, 288 >,
 	< 290, 24, 9, 0, 90, 192, 9, 289 >,
 	< 291, 24, 7, 0, 0, 128, 2, 290 >,
 	< 292, 24, 2, 66, 47, 169, 8, 291 >,
 	< 293, 24, 3, 0, 0, 120, 1, 292 >,
 	< 294, 24, 3, 0, 0, 181, 6, 293 >,
 	< 295, 24, 1, 37, 0, 128, 7, 294 >,
 	< 296, 24, 5, 39, 86, 135, 0, 295 >,
 	< 297, 24, 1, 0, 0, 108, 3, 296 >,
 	< 298, 24, 9, 0, 74, 113, 4, 297 >,
 	< 299, 24, 2, 0, 0, 116, 5, 298 >,
 	// order 25
 	< 300, 25, 6, 90, 0, 150, 9, -1 >,
 	< 301, 25, 7, 73, 71, 149, 2, 300 >,
 	< 302, 25, 9, 56, 30, 130, 8, 301 >,
 	< 303, 25, 1, 0, 54, 121, 1, 302 >,
 	< 304, 25, 6, 47, 0, 100, 6, 303 >,
 	< 305, 25, 5, 0, 0, 169, 7, 304 >,
 	< 306, 25, 8, 96, 77, 157, 0, 305 >,
 	< 307, 25, 6, 32, 81, 141, 3, 306 >,
 	< 308, 25, 6, 43, 0, 183, 4, 307 >,
 	< 309, 25, 10, 89, 0, 110, 5, 308 >,
 	< 310, 25, 8, 51, 0, 108, 9, 309 >,
 	< 311, 25, 3, 0, 70, 113, 2, 310 >,
 	// order 26
 	< 312, 26, 6, 82, 0, 187, 8, -1 >,
 	< 313, 26, 6, 0, 0, 179, 1, 312 >,
 	< 314, 26, 4, 0, 73, 181, 6, 313 >,
 	< 315, 26, 10, 34, 0, 118, 7, 314 >,
 	< 316, 26, 5, 46, 76, 178, 0, 315 >,
 	< 317, 26, 2, 0, 64, 128, 3, 316 >,
 	< 318, 26, 6, 0, 0, 160, 4, 317 >,
 	< 319, 26, 9, 44, 42, 123, 5, 318 >,
 	< 320, 26, 8, 0, 0, 174, 9, 319 >,
 	< 321, 26, 10, 44, 0, 111, 2, 320 >,
 	< 322, 26, 3, 0, 62, 113, 8, 321 >,
 	< 323, 26, 3, 0, 0, 108, 1, 322 >,
 	// order 27
 	< 324, 27, 7, 39, 97, 151, 6, -1 >,
 	< 325, 27, 9, 76, 0, 195, 7, 324 >,
 	< 326, 27, 4, 48, 0, 195, 0, 325 >,
 	< 327, 27, 7, 43, 78, 195, 3, 326 >,
 	< 328, 27, 10, 63, 0, 111, 4, 327 >,
 	< 329, 27, 8, 38, 0, 154, 5, 328 >,
 	< 330, 27, 4, 0, 0, 144, 9, 329 >,
 	< 331, 27, 2, 0, 0, 154, 2, 330 >,
 	< 332, 27, 10, 0, 0, 120, 8, 331 >,
 	< 333, 27, 6, 74, 70, 151, 1, 332 >,
 	< 334, 27, 5, 39, 0, 140, 6, 333 >,
 	< 335, 27, 7, 41, 0, 172, 7, 334 >,
 	// order 28
 	< 336, 28, 4, 0, 67, 167, 0, -1 >,
 	< 337, 28, 5, 65, 0, 174, 3, 336 >,
 	< 338, 28, 9, 61, 95, 145, 4, 337 >,
 	< 339, 28, 8, 59, 72, 120, 5, 338 >,
 	< 340, 28, 3, 0, 83, 141, 9, 339 >,
 	< 341, 28, 9, 66, 97, 196, 2, 340 >,
 	< 342, 28, 6, 0, 61, 165, 8, 341 >,
 	< 343, 28, 6, 0, 39, 183, 1, 342 >,
 	< 344, 28, 9, 93, 0, 148, 6, 343 >,
 	< 345, 28, 6, 94, 0, 174, 7, 344 >,
 	< 346, 28, 5, 0, 0, 181, 0, 345 >,
 	< 347, 28, 4, 95, 0, 113, 3, 346 >,
 	// order 29
 	< 348, 29, 8, 39, 73, 192, 4, -1 >,
 	< 349, 29, 6, 0, 0, 111, 5, 348 >,
 	< 350, 29, 2, 0, 63, 138, 9, 349 >,
 	< 351, 29, 5, 84, 96, 126, 2, 350 >,
 	< 352, 29, 8, 64, 0, 146, 8, 351 >,
 	< 353, 29, 5, 34, 0, 178, 1, 352 >,
 	< 354, 29, 7, 0, 54, 126, 6, 353 >,
 	< 355, 29, 7, 49, 0, 197, 7, 354 >,
 	< 356, 29, 6, 85, 62, 167, 0, 355 >,
 	< 357, 29, 7, 58, 37, 132, 3, 356 >,
 	< 358, 29, 1, 32, 76, 167, 4, 357 >,
 	< 359, 29, 2, 0, 99, 193, 5, 358 >,
 	// order 30
 	< 360, 30, 4, 40, 0, 113, 9, -1 >,
 	< 361, 30, 2, 99, 0, 137, 2, 360 >,
 	< 362, 30, 10, 87, 69, 177, 8, 361 >,
 	< 363, 30, 8, 40, 64, 168, 1, 362 >,
 	< 364, 30, 3, 0, 52, 132, 6, 363 >,
 	< 365, 30, 1, 0, 0, 174, 7, 364 >,
 	< 366, 30, 5, 31, 0, 135, 0, 365 >,
 	< 367, 30, 3, 65, 78, 163, 3, 366 >,
 	< 368, 30, 7, 37, 0, 122, 4, 367 >,
 	< 369, 30, 2, 0, 55, 171, 5, 368 >,
 	< 370, 30, 5, 0, 0, 167, 9, 369 >,
 	< 371, 30, 3, 0, 0, 183, 2, 370 >,
 	// order 31
 	< 372, 31, 8, 91, 0, 163, 8, -1 >,
 	< 373, 31, 6, 0, 57, 120, 1, 372 >,
 	< 374, 31, 5, 0, 0, 145, 6, 373 >,
 	< 375, 31, 10, 35, 0, 195, 7, 374 >,
 	< 376, 31, 7, 0, 0, 195, 0, 375 >,
 	< 377, 31, 3, 32, 0, 122, 3, 376 >,
 	< 378, 31, 6, 33, 0, 124, 4, 377 >,
 	< 379, 31, 7, 31, 46, 131, 5, 378 >,
 	< 380, 31, 6, 61, 93, 144, 9, 379 >,
 	< 381, 31, 2, 0, 53, 159, 2, 380 >,
 	< 382, 31, 6, 40, 82, 160, 8, 381 >,
 	< 383, 31, 8, 73, 68, 197, 1, 382 >,
 	// order 32
 	< 384, 32, 3, 40, 0, 100, 6, -1 >,
 	< 385, 32, 7, 98, 0, 185, 7, 384 >,
 	< 386, 32, 1, 0, 75, 147, 0, 385 >,
 	< 387, 32, 1, 77, 33, 189, 3, 386 >,
 	< 388, 32, 10, 0, 0, 104, 4, 387 >,
 	< 389, 32, 7, 51, 0, 111, 5, 388 >,
 	< 390, 32, 7, 30, 47, 112, 9, 389 >,
 	< 391, 32, 8, 0, 0, 179, 2, 390 >,
 	< 392, 32, 4, 0, 83, 194, 8, 391 >,
 	< 393, 32, 8, 36, 0, 166, 1, 392 >,
 	< 394, 32, 9, 100, 0, 108, 6, 393 >,
 	< 395, 32, 3, 0, 0, 122, 7, 394 >,
 	// order 33
 	< 396, 33, 4, 47, 99, 122, 0, -1 >,
 	< 397, 33, 4, 0, 58, 134, 3, 396 >,
 	< 398, 33, 4, 70, 76, 151, 4, 397 >,
 	< 399, 33, 5, 0, 0, 129, 5, 398 >,
 	< 400, 33, 8, 42, 45, 168, 9, 399 >,
 	< 401, 33, 8, 94, 0, 170, 2, 400 >,
 	< 402, 33, 7, 81, 0, 114, 8, 401 >,
 	< 403, 33, 8, 67, 56, 112, 1, 402 >,
 	< 404, 33, 7, 54, 0, 138, 6, 403 >,
 	< 405, 33, 2, 70, 99, 190, 7, 404 >,
 	< 406, 33, 10, 91, 0, 101, 0, 405 >,
 	< 407, 33, 8, 71, 90, 138, 3, 406 >,
 	// order 34
 	< 408, 34, 7, 75, 81, 151, 4, -1 >,
 	< 409, 34, 8, 94, 95, 164, 5, 408 >,
 	< 410, 34, 2, 0, 0, 193, 9, 409 >,
 	< 411, 34, 4, 78, 0, 129, 2, 410 >,
 	< 412, 34, 8, 31, 0, 122, 8, 411 >,
 	< 413, 34, 1, 85, 32, 150, 1, 412 >,
 	< 414, 34, 3, 0, 0, 170, 6, 413 >,
 	< 415, 34, 7, 61, 0, 177, 7, 414 >,
 	< 416, 34, 8, 0, 0, 101, 0, 415 >,
 	< 417, 34, 10, 79, 88, 124, 3, 416 >,
 	< 418, 34, 1, 0, 35, 193, 4, 417 >,
 	< 419, 34, 9, 81, 61, 110, 5, 418 >,
 	// order 35
 	< 420, 35, 2, 66, 0, 137, 9, -1 >,
 	< 421, 35, 9, 0, 48, 177, 2, 420 >,
 	< 422, 35, 2, 0, 66, 165, 8, 421 >,
 	< 423, 35, 5, 0, 0, 150, 1, 422 >,
 	< 424, 35, 4, 97, 100, 130, 6, 423 >,
 	< 425, 35, 8, 0, 0, 184, 7, 424 >,
 	< 426, 35, 1, 96, 77, 162, 0, 425 >,
 	< 427, 35, 2, 71, 93, 144, 3, 426 >,
 	< 428, 35, 2, 63, 89, 195, 4, 427 >,
 	< 429, 35, 6, 0, 0, 162, 5, 428 >,
 	< 430, 35, 6, 0, 0, 112, 9, 429 >,
 	< 431, 35, 3, 0, 38, 161, 2, 430 >,
 	// order 36
 	< 432, 36, 6, 0, 46, 196, 8, -1 >,
 	< 433, 36, 2, 0, 93, 151, 1, 432 >,
 	< 434, 36, 6, 0, 72, 193, 6, 433 >,
 	< 435, 36, 9, 0, 0, 107, 7, 434 >,
 	< 436, 36, 5, 76, 58, 142, 0, 435 >,
 	< 437, 36, 3, 86, 58, 196, 3, 436 >,
 	< 438, 36, 4, 0, 51, 142, 4, 437 >,
 	< 439, 36, 4, 0, 82, 135, 5, 438 >,
 	< 440, 36, 1, 83, 43, 200, 9, 439 >,
 	< 441, 36, 4, 0, 0, 183, 2, 440 >,
 	< 442, 36, 10, 0, 86, 195, 8, 441 >,
 	< 443, 36, 1, 0, 79, 125, 1, 442 >,
 	// order 37
 	< 444, 37, 7, 0, 0, 156, 6, -1 >,
 	< 445, 37, 3, 71, 0, 151, 7, 444 >,
 	< 446, 37, 6, 0, 54, 111, 0, 445 >,
 	< 447, 37, 8, 43, 46, 126, 3, 446 >,
 	< 448, 37, 6, 50, 33, 188, 4, 447 >,
 	< 449, 37, 9, 0, 0, 133, 5, 448 >,
 	< 450, 37, 10, 88, 0, 166, 9, 449 >,
 	< 451, 37, 8, 0, 0, 160, 2, 450 >,
 	< 452, 37, 3, 0, 0, 164, 8, 451 >,
 	< 453, 37, 8, 40, 0, 155, 1, 452 >,
 	< 454, 37, 1, 93, 72, 143, 6, 453 >,
 	< 455, 37, 8, 0, 0, 190, 7, 454 >,
 	// order 38
 	< 456, 38, 6, 0, 0, 139, 0, -1 >,
 	< 457, 38, 10, 0, 69, 194, 3, 456 >,
 	< 458, 38, 9, 0, 0, 178, 4, 457 >,
 	< 459, 38, 10, 100, 61, 200, 5, 458 >,
 	< 460, 38, 6, 94, 48, 117, 9, 459 >,
 	< 461, 38, 4, 0, 0, 192, 2, 460 >,
 	< 462, 38, 4, 73, 51, 170, 8, 461 >,
 	< 463, 38, 3, 0, 0, 113, 1, 462 >,
 	< 464, 38, 5, 0, 0, 120, 6, 463 >,
 	< 465, 38, 3, 0, 43, 191, 7, 464 >,
 	< 466, 38, 9, 70, 0, 105, 0, 465 >,
 	< 467, 38, 6, 0, 73, 190, 3, 466 >,
 	// order 39
 	< 468, 39, 3, 82, 0, 163, 4, -1 >,
 	< 469, 39, 6, 0, 59, 148, 5, 468 >,
 	< 470, 39, 3, 94, 51, 153, 9, 469 >,
 	< 471, 39, 4, 79, 41, 120, 2, 470 >,
 	< 472, 39, 3, 52, 0, 182, 8, 471 >,
 	< 473, 39, 5, 39, 0, 109, 1, 472 >,
 	< 474, 39, 7, 0, 70, 173, 6, 473 >,
 	< 475, 39, 9, 76, 0, 126, 7, 474 >,
 	< 476, 39, 6, 73, 0, 170, 0, 475 >,
 	< 477, 39, 8, 66, 0, 146, 3, 476 >,
 	< 478, 39, 9, 0, 31, 136, 4, 477 >,
 	< 479, 39, 2, 0, 0, 173, 5, 478 >,
 	// order 40
 	< 480, 40, 7, 0, 0, 125, 9, -1 >,
 	< 481, 40, 2, 0, 33, 173, 2, 480 >,
 	< 482, 40, 9, 0, 0, 104, 8, 481 >,
 	< 483, 40, 4, 76, 0, 193, 1, 482 >,
 	< 484, 40, 3, 36, 0, 103, 6, 483 >,
 	< 485, 40, 10, 44, 62, 178, 7, 484 >,
 	< 486, 40, 3, 90, 0, 193, 0, 485 >,
 	< 487, 40, 5, 49, 0, 141, 3, 486 >,
 	< 488, 40, 10, 77, 0, 172, 4, 487 >,
 	< 489, 40, 8, 0, 80, 184, 5, 488 >,
 	< 490, 40, 4, 49, 79, 164, 9, 489 >,
 	< 491, 40, 2, 0, 0, 149, 2, 490 >,
 	// order 41
 	< 492, 41, 10, 47, 0, 151, 8, -1 >,
 	< 493, 41, 3, 84, 0, 189, 1, 492 >,
 	< 494, 41, 10, 0, 0, 152, 6, 493 >,
 	< 495, 41, 3, 59, 0, 131, 7, 494 >,
 	< 496, 41, 2, 0, 0, 182, 0, 495 >,
 	< 497, 41, 7, 0, 0, 126, 3, 496 >,
 	< 498, 41, 1, 50, 0, 173, 4, 497 >,
 	< 499, 41, 10, 59, 0, 175, 5, 498 >,
 	< 500, 41, 5, 62, 0, 166, 9, 499 >,
 	< 501, 41, 8, 94, 89, 176, 2, 500 >,
 	< 502, 41, 7, 0, 0, 196, 8, 501 >,
 	< 503, 41, 10, 0, 0, 164, 1, 502 >,
 	// order 42
 	< 504, 42, 9, 90, 0, 100, 6, -1 >,
 	< 505, 42, 6, 0, 69, 119, 7, 504 >,
 	< 506, 42, 5, 0, 0, 185, 0, 505 >,
 	< 507, 42, 9, 0, 0, 186, 3, 506 >,
 	< 508, 42, 10, 74, 80, 143, 4, 507 >,
 	< 509, 42, 6, 59, 35, 137, 5, 508 >,
 	< 510, 42, 8, 88, 70, 112, 9, 509 >,
 	< 511, 42, 6, 62, 62, 191, 2, 510 >,
 	< 512, 42, 3, 68, 76, 177, 8, 511 >,
 	< 513, 42, 2, 0, 0, 107, 1, 512 >,
 	< 514, 42, 2, 0, 0, 182, 6, 513 >,
 	< 515, 42, 10, 0, 64, 113, 7, 514 >,
 	// order 43
 	< 516, 43, 7, 42, 0, 168, 0, -1 >,
 	< 517, 43, 3, 0, 0, 176, 3, 516 >,
 	< 518, 43, 5, 58, 0, 122, 4, 517 >,
 	< 519, 43, 8, 100, 82, 185, 5, 518 >,
 	< 520, 43, 7, 0, 92, 172, 9, 519 >,
 	< 521, 43, 7, 0, 83, 121, 2, 520 >,
 	< 522, 43, 2, 98, 0, 177, 8, 521 >,
 	< 523, 43, 2, 0, 0, 187, 1, 522 >,
 	< 524, 43, 6, 0, 0, 142, 6, 523 >,
 	< 525, 43, 8, 77, 47, 128, 7, 524 >,
 	< 526, 43, 2, 68, 75, 148, 0, 525 >,
 	< 527, 43, 4, 51, 35, 188, 3, 526 >,
 	// order 44
 	< 528, 44, 6, 68, 0, 196, 4, -1 >,
 	< 529, 44, 5, 62, 73, 167, 5, 528 >,
 	< 530, 44, 1, 0, 41, 191, 9, 529 >,
 	< 531, 44, 2, 0, 0, 181, 2, 530 >,
 	< 532, 44, 2, 0, 50, 157, 8, 531 >,
 	< 533, 44, 1, 0, 0, 139, 1, 532 >,
 	< 534, 44, 3, 75, 77, 181, 6, 533 >,
 	< 535, 44, 10, 56, 45, 192, 7, 534 >,
 	< 536, 44, 8, 64, 0, 152, 0, 535 >,
 	< 537, 44, 8, 0, 0, 147, 3, 536 >,
 	< 538, 44, 8, 0, 49, 177, 4, 537 >,
 	< 539, 44, 1, 48, 97, 112, 5, 538 >,
 	// order 45
 	< 540, 45, 9, 0, 0, 182, 9, -1 >,
 	< 541, 45, 1, 0, 79, 117, 2, 540 >,
 	< 542, 45, 1, 72, 92, 132, 8, 541 >,
 	< 543, 45, 8, 0, 0, 105, 1, 542 >,
 	< 544, 45, 3, 0, 95, 156, 6, 543 >,
 	< 545, 45, 8, 0, 93, 176, 7, 544 >,
 	< 546, 45, 2, 71, 37, 105, 0, 545 >,
 	< 547, 45, 8, 0, 46, 129, 3, 546 >,
 	< 548, 45, 2, 0, 0, 144, 4, 547 >,
 	< 549, 45, 10, 0, 57, 144, 5, 548 >,
 	< 550, 45, 3, 46, 76, 195, 9, 549 >,
 	< 551, 45, 2, 0, 33, 100, 2, 550 >,
 	// order 46
 	< 552, 46, 8, 96, 0, 142, 8, -1 >,
 	< 553, 46, 3, 81, 72, 133, 1, 552 >,
 	< 554, 46, 5, 83, 0, 175, 6, 553 >,
 	< 555, 46, 6, 0, 54, 121, 7, 554 >,
 	< 556, 46, 2, 0, 0, 142, 0, 555 >,
 	< 557, 46, 4, 34, 0, 188, 3, 556 >,
 	< 558, 46, 7, 74, 0, 159, 4, 557 >,
 	< 559, 46, 6, 0, 0, 102, 5, 558 >,
 	< 560, 46, 8, 35, 90, 195, 9, 559 >,
 	< 561, 46, 3, 0, 69, 119, 2, 560 >,
 	< 562, 46, 7, 36, 86, 156, 8, 561 >,
 	< 563, 46, 2, 0, 32, 136, 1, 562 >,
 	// order 47
 	< 564, 47, 9, 97, 72, 186, 6, -1 >,
 	< 565, 47, 6, 0, 47, 144, 7, 564 >,
 	< 566, 47, 5, 86, 0, 159, 0, 565 >,
 	< 567, 47, 7, 45, 91, 150, 3, 566 >,
 	< 568, 47, 10, 0, 74, 193, 4, 567 >,
 	< 569, 47, 5, 0, 0, 103, 5, 568 >,
 	< 570, 47, 5, 56, 65, 159, 9, 569 >,
 	< 571, 47, 9, 0, 0, 187, 2, 570 >,
 	< 572, 47, 9, 0, 44, 116, 8, 571 >,
 	< 573, 47, 3, 76, 70, 194, 1, 572 >,
 	< 574, 47, 5, 0, 0, 132, 6, 573 >,
 	< 575, 47, 7, 32, 95, 112, 7, 574 >,
 	// order 48
 	< 576, 48, 2, 0, 0, 197, 0, -1 >,
 	< 577, 48, 5, 35, 30, 176, 3, 576 >,
 	< 578, 48, 2, 36, 0, 150, 4, 577 >,
 	< 579, 48, 1, 0, 60, 101, 5, 578 >,
 	< 580, 48, 8, 0, 37, 105, 9, 579 >,
 	< 581, 48, 10, 58, 91, 183, 2, 580 >,
 	< 582, 48, 4, 0, 76, 184, 8, 581 >,
 	< 583, 48, 8, 0, 79, 184, 1, 582 >,
 	< 584, 48, 1, 87, 69, 199, 6, 583 >,
 	< 585, 48, 5, 72, 46, 155, 7, 584 >,
 	< 586, 48, 10, 0, 0, 136, 0, 585 >,
 	< 587, 48, 2, 69, 77, 175, 3, 586 >,
 	// order 49
 	< 588, 49, 2, 87, 0, 135, 4, -1 >,
 	< 589, 49, 5, 48, 37, 173, 5, 588 >,
 	< 590, 49, 2, 36, 0, 135, 9, 589 >,
 	< 591, 49, 6, 61, 50, 117, 2, 590 >,
 	< 592, 49, 6, 66, 0, 156, 8, 591 >,
 	< 593, 49, 5, 52, 0, 106, 1, 592 >,
 	< 594, 49, 2, 0, 92, 194, 6, 593 >,
 	< 595, 49, 2, 32, 0, 134, 7, 594 >,
 	< 596, 49, 10, 0, 81, 158, 0, 595 >,
 	< 597, 49, 1, 0, 59, 162, 3, 596 >,
 	< 598, 49, 2, 0, 0, 196, 4, 597 >,
 	< 599, 49, 4, 95, 90, 119, 5, 598 >
 };
